* ENCODING=ISO-8859-1
NAME          CPLEX
ROWS
 N  obj1    
 G  c1      
 G  c2      
 G  c3      
 G  c4      
 G  c5      
 G  c6      
 G  c7      
 G  c8      
 G  c9      
 G  c10     
 G  c11     
 G  c12     
 G  c13     
 G  c14     
 G  c15     
 G  c16     
 G  c17     
 G  c18     
 G  c19     
 G  c20     
 G  c21     
 G  c22     
 G  c23     
 G  c24     
 G  c25     
 G  c26     
 G  c27     
 G  c28     
 G  c29     
 G  c30     
 G  c31     
 G  c32     
 G  c33     
 G  c34     
 G  c35     
 G  c36     
 G  c37     
 G  c38     
 G  c39     
 G  c40     
COLUMNS
    MARK0000  'MARKER'                 'INTORG'
    x1        obj1                            1
    x1        c18                           894
    x1        c23                           782
    x1        c27                           682
    x1        c30                           203
    x1        c31                           967
    x2        obj1                            1
    x2        c1                            803
    x2        c2                            569
    x2        c18                           189
    x2        c19                           941
    x2        c32                           800
    x2        c40                           767
    x3        obj1                            1
    x4        obj1                            1
    x4        c10                           606
    x5        obj1                            1
    x5        c4                            516
    x5        c6                            442
    x5        c9                            633
    x5        c25                           723
    x6        obj1                            1
    x6        c1                            144
    x6        c7                            341
    x6        c9                            161
    x6        c15                           409
    x6        c34                           741
    x6        c37                           872
    x6        c39                           670
    x7        obj1                            1
    x7        c9                            992
    x7        c12                           321
    x7        c26                           439
    x8        obj1                            1
    x8        c6                            289
    x8        c20                           732
    x8        c25                           821
    x8        c37                           249
    x9        obj1                            1
    x9        c3                            260
    x9        c4                            984
    x9        c7                            374
    x9        c8                            703
    x9        c9                            599
    x9        c13                           603
    x9        c30                           376
    x9        c39                           268
    x10       obj1                            1
    x10       c4                            354
    x10       c7                            704
    x10       c8                            129
    x10       c17                           978
    x10       c29                           997
    x10       c31                           207
    x11       obj1                            1
    x11       c18                           433
    x11       c20                           759
    x11       c27                           557
    x11       c28                           376
    x12       obj1                            1
    x12       c15                           213
    x12       c21                           898
    x13       obj1                            1
    x13       c1                            236
    x13       c13                           980
    x13       c14                           914
    x13       c26                           472
    x14       obj1                            1
    x14       c30                           224
    x15       obj1                            1
    x15       c9                            255
    x15       c17                           561
    x15       c24                           725
    x16       obj1                            1
    x16       c24                           880
    x16       c37                           333
    x17       obj1                            1
    x17       c36                           727
    x18       obj1                            1
    x18       c19                           167
    x18       c20                           104
    x18       c28                           466
    x18       c34                           881
    x19       obj1                            1
    x19       c19                           869
    x19       c27                           415
    x19       c28                           610
    x19       c33                           865
    x19       c35                           288
    x20       obj1                            1
    x20       c5                            202
    x20       c9                            177
    x20       c12                           594
    x20       c18                           949
    x20       c25                           667
    x20       c39                           601
    x21       obj1                            1
    x21       c3                            432
    x21       c18                           233
    x21       c23                           962
    x21       c24                           491
    x21       c26                           795
    x22       obj1                            1
    x22       c2                            702
    x22       c10                           136
    x22       c19                           277
    x22       c26                           658
    x22       c29                           723
    x23       obj1                            1
    x23       c7                            883
    x23       c23                           108
    x24       obj1                            1
    x24       c10                           564
    x24       c11                           718
    x24       c16                           654
    x24       c22                           276
    x25       obj1                            1
    x25       c4                            416
    x25       c33                           876
    x25       c39                           608
    x26       obj1                            1
    x26       c31                           745
    x27       obj1                            1
    x27       c21                           976
    x27       c25                           381
    x28       obj1                            1
    x28       c5                            565
    x28       c7                            734
    x28       c8                            672
    x28       c25                           766
    x28       c30                           883
    x28       c32                           757
    x29       obj1                            1
    x29       c15                           451
    x29       c17                           232
    x29       c23                           140
    x29       c25                           389
    x30       obj1                            1
    x30       c3                            293
    x30       c9                            565
    x30       c17                           943
    x30       c19                           888
    x30       c26                           552
    x30       c27                           339
    x30       c38                           424
    x31       obj1                            1
    x31       c6                            948
    x31       c11                           629
    x31       c20                           916
    x32       obj1                            1
    x32       c6                            120
    x32       c9                            145
    x32       c22                           368
    x32       c32                           117
    x33       obj1                            1
    x33       c3                            120
    x33       c19                           265
    x33       c22                           498
    x33       c28                           657
    x33       c31                           492
    x34       obj1                            1
    x34       c26                           938
    x34       c38                           579
    x35       obj1                            1
    x35       c10                           330
    x35       c17                           322
    x35       c27                           502
    x35       c30                           343
    x35       c33                           167
    x35       c39                           838
    x36       obj1                            1
    x36       c1                            241
    x36       c4                            304
    x36       c9                            702
    x36       c19                           691
    x36       c25                           930
    x36       c26                           150
    x36       c35                           628
    x36       c37                           344
    x36       c40                           958
    x37       obj1                            1
    x37       c15                           316
    x37       c31                           810
    x38       obj1                            1
    x38       c13                           337
    x38       c14                           441
    x38       c16                           778
    x38       c19                           131
    x38       c20                           146
    x38       c25                           326
    x38       c34                           133
    x38       c39                           557
    x38       c40                           646
    x39       obj1                            1
    x39       c2                            876
    x39       c7                            562
    x39       c9                            590
    x39       c24                           518
    x39       c36                           316
    x40       obj1                            1
    x40       c3                            147
    x40       c6                            136
    x40       c22                           320
    x40       c25                           263
    x40       c27                           887
    x40       c31                           898
    x40       c39                           986
    x41       obj1                            1
    x41       c6                            600
    x41       c10                           792
    x41       c33                           837
    x41       c36                           283
    x42       obj1                            1
    x42       c15                           597
    x42       c17                           994
    x42       c20                           811
    x43       obj1                            1
    x43       c8                            551
    x43       c14                           681
    x43       c20                           805
    x43       c32                           368
    x43       c38                           176
    x44       obj1                            1
    x44       c4                            100
    x44       c17                           731
    x44       c24                           587
    x44       c25                           652
    x44       c28                           842
    x45       obj1                            1
    x45       c3                            276
    x45       c17                           219
    x45       c26                           183
    x45       c28                           409
    x45       c30                           244
    x45       c31                           622
    x45       c33                           863
    x46       obj1                            1
    x46       c15                           897
    x46       c27                           983
    x47       obj1                            1
    x47       c1                            266
    x47       c5                            526
    x47       c25                           480
    x47       c38                           406
    x48       obj1                            1
    x48       c3                            502
    x48       c24                           305
    x48       c26                           192
    x48       c29                           975
    x48       c30                           884
    x48       c31                           562
    x48       c39                           754
    x49       obj1                            1
    x49       c11                           578
    x49       c12                           201
    x49       c16                           479
    x49       c27                           529
    x49       c30                           538
    x49       c35                           414
    x50       obj1                            1
    x50       c6                            795
    x50       c16                           976
    x50       c18                           920
    x50       c29                           387
    x50       c37                           282
    x51       obj1                            1
    x51       c4                            468
    x51       c10                           386
    x51       c12                           891
    x51       c16                           122
    x51       c18                           723
    x51       c26                           669
    x51       c28                           426
    x52       obj1                            1
    x52       c4                            704
    x52       c5                            143
    x52       c7                            684
    x52       c15                           587
    x52       c24                           740
    x53       obj1                            1
    x54       obj1                            1
    x54       c5                            468
    x55       obj1                            1
    x55       c8                            367
    x55       c19                           567
    x55       c28                           934
    x55       c30                           897
    x55       c33                           985
    x55       c40                           530
    x56       obj1                            1
    x56       c19                           670
    x56       c40                           510
    x57       obj1                            1
    x57       c3                            382
    x57       c15                           387
    x57       c19                           245
    x57       c33                           713
    x58       obj1                            1
    x58       c15                           687
    x58       c18                           718
    x58       c33                           505
    x59       obj1                            1
    x59       c2                            107
    x59       c7                            559
    x59       c18                           340
    x59       c36                           187
    x59       c39                           578
    x60       obj1                            1
    x60       c10                           155
    x60       c22                           726
    x61       obj1                            1
    x61       c4                            503
    x61       c28                           169
    x62       obj1                            1
    x62       c11                           959
    x62       c20                           434
    x63       obj1                            1
    x63       c9                            959
    x63       c11                           842
    x63       c29                           649
    x63       c31                           843
    x63       c37                           139
    x64       obj1                            1
    x64       c4                            642
    x64       c23                           910
    x64       c30                           564
    x64       c39                           731
    x65       obj1                            1
    x65       c12                           502
    x65       c18                           546
    x65       c21                           300
    x65       c27                           672
    x65       c36                           308
    x66       obj1                            1
    x66       c10                           356
    x66       c12                           678
    x66       c28                           884
    x66       c37                           641
    x67       obj1                            1
    x67       c2                            286
    x67       c15                           791
    x67       c23                           839
    x68       obj1                            1
    x68       c1                            555
    x68       c10                           705
    x68       c17                           439
    x68       c28                           606
    x68       c30                           557
    x68       c33                           895
    x68       c38                           940
    x69       obj1                            1
    x69       c13                           607
    x69       c14                           823
    x69       c18                           478
    x69       c23                           555
    x69       c33                           357
    x69       c37                           604
    x70       obj1                            1
    x70       c10                           337
    x70       c15                           323
    x70       c21                           178
    x70       c28                           449
    x70       c36                           176
    x71       obj1                            1
    x71       c3                            181
    x71       c38                           839
    x72       obj1                            1
    x72       c3                            704
    x72       c18                           632
    x72       c20                          1000
    x72       c21                           502
    x72       c33                           984
    x73       obj1                            1
    x73       c7                            277
    x73       c24                           877
    x73       c26                           373
    x74       obj1                            1
    x74       c6                            239
    x74       c30                           551
    x74       c33                           981
    x75       obj1                            1
    x75       c11                           125
    x75       c25                           712
    x75       c37                           518
    x76       obj1                            1
    x76       c10                           475
    x76       c12                           312
    x76       c15                           585
    x76       c19                           525
    x76       c31                           967
    x76       c34                           863
    x76       c38                           627
    x77       obj1                            1
    x77       c8                            555
    x77       c17                           775
    x77       c26                           653
    x77       c35                           971
    x78       obj1                            1
    x78       c10                           339
    x78       c14                           810
    x78       c20                           569
    x78       c35                           384
    x78       c36                           982
    x79       obj1                            1
    x79       c6                            450
    x79       c12                          1000
    x79       c24                           772
    x80       obj1                            1
    x80       c17                           148
    x80       c22                           921
    MARK0001  'MARKER'                 'INTEND'
RHS
    rhs       c1                           1123
    rhs       c2                           1270
    rhs       c3                           1649
    rhs       c4                           2496
    rhs       c5                            952
    rhs       c6                           2010
    rhs       c7                           2559
    rhs       c8                           1489
    rhs       c9                           2889
    rhs       c10                          2591
    rhs       c11                          1926
    rhs       c12                          2250
    rhs       c13                          1264
    rhs       c14                          1835
    rhs       c15                          3122
    rhs       c16                          1505
    rhs       c17                          3171
    rhs       c18                          3528
    rhs       c19                          3118
    rhs       c20                          3138
    rhs       c21                          1427
    rhs       c22                          1555
    rhs       c23                          2148
    rhs       c24                          2948
    rhs       c25                          3555
    rhs       c26                          3037
    rhs       c27                          2783
    rhs       c28                          3414
    rhs       c29                          1866
    rhs       c30                          3132
    rhs       c31                          3557
    rhs       c32                          1021
    rhs       c33                          4514
    rhs       c34                          1309
    rhs       c35                          1343
    rhs       c36                          1490
    rhs       c37                          1991
    rhs       c38                          1996
    rhs       c39                          3296
    rhs       c40                          1706
BOUNDS
 LI bnd       x1        0
 LI bnd       x2        0
 LI bnd       x3        0
 LI bnd       x4        0
 LI bnd       x5        0
 LI bnd       x6        0
 LI bnd       x7        0
 LI bnd       x8        0
 LI bnd       x9        0
 LI bnd       x10       0
 LI bnd       x11       0
 LI bnd       x12       0
 LI bnd       x13       0
 LI bnd       x14       0
 LI bnd       x15       0
 LI bnd       x16       0
 LI bnd       x17       0
 LI bnd       x18       0
 LI bnd       x19       0
 LI bnd       x20       0
 LI bnd       x21       0
 LI bnd       x22       0
 LI bnd       x23       0
 LI bnd       x24       0
 LI bnd       x25       0
 LI bnd       x26       0
 LI bnd       x27       0
 LI bnd       x28       0
 LI bnd       x29       0
 LI bnd       x30       0
 LI bnd       x31       0
 LI bnd       x32       0
 LI bnd       x33       0
 LI bnd       x34       0
 LI bnd       x35       0
 LI bnd       x36       0
 LI bnd       x37       0
 LI bnd       x38       0
 LI bnd       x39       0
 LI bnd       x40       0
 LI bnd       x41       0
 LI bnd       x42       0
 LI bnd       x43       0
 LI bnd       x44       0
 LI bnd       x45       0
 LI bnd       x46       0
 LI bnd       x47       0
 LI bnd       x48       0
 LI bnd       x49       0
 LI bnd       x50       0
 LI bnd       x51       0
 LI bnd       x52       0
 LI bnd       x53       0
 LI bnd       x54       0
 LI bnd       x55       0
 LI bnd       x56       0
 LI bnd       x57       0
 LI bnd       x58       0
 LI bnd       x59       0
 LI bnd       x60       0
 LI bnd       x61       0
 LI bnd       x62       0
 LI bnd       x63       0
 LI bnd       x64       0
 LI bnd       x65       0
 LI bnd       x66       0
 LI bnd       x67       0
 LI bnd       x68       0
 LI bnd       x69       0
 LI bnd       x70       0
 LI bnd       x71       0
 LI bnd       x72       0
 LI bnd       x73       0
 LI bnd       x74       0
 LI bnd       x75       0
 LI bnd       x76       0
 LI bnd       x77       0
 LI bnd       x78       0
 LI bnd       x79       0
 LI bnd       x80       0
ENDATA
